NAME: test122
TYPE: TSP
DIMENSION: 20
EDGE_WEIGHT_TYPE: EUC_2D
NODE_COORD_SECTION
1 7.612704602348385 33.70731749373308
2 90.98792016544344 5.74062174756389
3 63.44445522898759 23.58607353987796
4 89.04276365618594 42.53064420961419
5 16.687866271226824 23.86973298494992
6 33.53142249145068 28.812724810820868
7 22.506223919476575 78.23830186458378
8 52.4436859673383 66.10029931538072
9 71.26429732250081 52.62154874215913
10 34.47348902434156 65.97060436081074
11 87.43394933121488 91.8803639625404
12 2.5265918192988734 87.06728609339878
13 29.338922401147048 92.65134990481867
14 50.218127121201285 10.111344255182598
15 68.85910027475775 71.7818996640377
16 31.15662912633368 77.00726961559027
17 94.67489629596166 95.76025852369871
18 24.402728881221392 2.6201164401211563
19 34.488985393781526 38.681420065792615
20 34.42956789935347 23.177993584922163
EOF
